p cnf 7230 17
-3476 -3478 4025 -4027 0
-1664 -3472 -3482 -3544 4030 0
1664 -4031 0
3472 -4031 0
3478 -4025 0
-1662 -3542 4026 0
1662 -4027 0
3482 -4031 0
-4030 4031 0
-3484 4029 0
4028 -4029 0
3484 -4028 0
-4026 4027 0
3542 -4027 0
3544 -4031 0
-4024 4025 0
4024 -4025 0
